
Gurobi 9.5.1 (linux64) logging started Sat Jul  2 17:46:12 2022

Set parameter LogFile to value "../results/logs/log_Gowalla_edges_3_250_2022_07_02_17_26.log"
Gurobi Optimizer version 9.5.1 build v9.5.1rc2 (linux64)
Thread count: 8 physical cores, 8 logical processors, using up to 8 threads
Optimize a model with 20527 rows, 393182 columns and 191427 nonzeros
Model fingerprint: 0x6c65fe76
Coefficient statistics:
  Matrix range     [1e+00, 3e+00]
  Objective range  [1e+00, 1e+00]
  Bounds range     [1e+00, 1e+00]
  RHS range        [1e+00, 2e+02]

Concurrent LP optimizer: primal simplex, dual simplex, and barrier
Showing barrier log only...

Presolve removed 10465 rows and 378474 columns
Presolve time: 0.22s
Presolved: 10062 rows, 14708 columns, 40232 nonzeros

Ordering time: 0.00s

Barrier statistics:
 AA' NZ     : 9.908e+03
 Factor NZ  : 1.851e+04 (roughly 4 MB of memory)
 Factor Ops : 1.279e+05 (less than 1 second per iteration)
 Threads    : 1

                  Objective                Residual
Iter       Primal          Dual         Primal    Dual     Compl     Time
   0   1.39547569e+05  5.89852196e+05  1.82e+03 1.29e+02  2.13e+03     0s
   1   1.22173877e+05  1.49018432e+06  7.82e+02 6.82e-13  8.86e+02     0s
   2   1.12582995e+05  1.03966012e+06  9.50e+01 6.82e-13  1.43e+02     0s
   3   1.11573866e+05  3.74065059e+05  1.25e+01 1.36e-12  2.56e+01     0s
   4   1.11662723e+05  2.15318860e+05  8.25e-01 8.88e-13  7.92e+00     0s
   5   1.11794182e+05  1.31486574e+05  1.70e-01 1.10e-12  1.47e+00     0s
   6   1.12109304e+05  1.15911378e+05  1.12e-02 2.73e-13  2.82e-01     0s
   7   1.12532869e+05  1.14067989e+05  2.31e-03 1.10e-13  1.14e-01     0s
   8   1.12717890e+05  1.13825788e+05  8.73e-04 8.82e-14  8.21e-02     0s
   9   1.12749471e+05  1.13461609e+05  7.37e-04 5.68e-14  5.28e-02     0s
  10   1.12843636e+05  1.13417467e+05  3.87e-04 1.14e-13  4.25e-02     0s
  11   1.12872200e+05  1.13276285e+05  3.00e-04 2.84e-14  2.99e-02     0s
  12   1.12935973e+05  1.13161218e+05  1.34e-04 2.84e-14  1.67e-02     0s
  13   1.12999264e+05  1.13051991e+05  9.40e-06 1.14e-13  3.91e-03     0s
  14   1.13011734e+05  1.13024386e+05  2.65e-06 1.14e-13  9.37e-04     0s
  15   1.13017225e+05  1.13017363e+05  1.15e-14 2.84e-14  1.02e-05     0s
  16   1.13017293e+05  1.13017293e+05  1.78e-14 5.68e-14  1.02e-08     0s
  17   1.13017293e+05  1.13017293e+05  1.55e-13 5.68e-14  1.02e-11     0s

Barrier solved model in 17 iterations and 0.27 seconds (0.18 work units)
Optimal objective 1.13017293e+05

Crossover log...

    1036 DPushes remaining with DInf 0.0000000e+00                 0s
       0 DPushes remaining with DInf 0.0000000e+00                 0s

     151 PPushes remaining with PInf 0.0000000e+00                 0s
       0 PPushes remaining with PInf 0.0000000e+00                 0s

  Push phase complete: Pinf 0.0000000e+00, Dinf 1.6428525e-13      0s

Iteration    Objective       Primal Inf.    Dual Inf.      Time
     581    1.1301729e+05   0.000000e+00   0.000000e+00      0s

Use crossover to convert LP symmetric solution to basic solution...
Crossover log...

       0 DPushes remaining with DInf 0.0000000e+00                 0s

     410 PPushes remaining with PInf 0.0000000e+00                 0s
       0 PPushes remaining with PInf 0.0000000e+00                 0s

  Push phase complete: Pinf 0.0000000e+00, Dinf 5.9868777e-14      0s

Iteration    Objective       Primal Inf.    Dual Inf.      Time
    1027    1.1301729e+05   0.000000e+00   0.000000e+00      0s

Solved with primal simplex
Solved in 2998 iterations and 0.40 seconds (0.20 work units)
Optimal objective  1.130172934e+05
